unsat
(:SPACER-cluster-out-of-gas           50
 :SPACER-concretize                   121
 :SPACER-conj                         68
 :SPACER-expand-pob-undef             39
 :SPACER-inductive-gen                614
 :SPACER-inductive-gen-weaken-fail    1351
 :SPACER-inductive-gen-weaken-success 2
 :SPACER-inductive-level              26
 :SPACER-max-depth                    34
 :SPACER-max-query-lvl                34
 :SPACER-non-local-gen                149
 :SPACER-num-active-lemmas            137
 :SPACER-num-cant-abstract            5
 :SPACER-num-ctp-blocked              97
 :SPACER-num-invariants               170
 :SPACER-num-is_invariant             4021
 :SPACER-num-lemma-jumped             53
 :SPACER-num-lemmas                   654
 :SPACER-num-non-lin                  48
 :SPACER-num-pobs                     572
 :SPACER-num-propagations             3198
 :SPACER-num-queries                  520
 :SPACER-num-reach-queries            41
 :SPACER-num-reuse-reach-facts        30
 :SPACER-pob-out-of-gas               7
 :SPACER-subsume-failed               17
 :SPACER-subsume-pob                  53
 :SPACER-subsume-success              100
 :added-eqs                           1915844
 :arith-assert-diseq                  185628
 :arith-assert-lower                  1904778
 :arith-assert-upper                  1745318
 :arith-bound-prop                    244920
 :arith-branch-var                    1956
 :arith-conflicts                     4192
 :arith-eq-adapter                    205442
 :arith-fixed-eqs                     542168
 :arith-gcd-conflicts                 148
 :arith-gcd-tests                     370722
 :arith-gomory-cuts                   1574
 :arith-ineq-splits                   1956
 :arith-num-rows                      1120
 :arith-offset-eqs                    528244
 :arith-patches                       3802
 :arith-patches_succ                  62
 :arith-pivots                        98784
 :arith-row-summations                8055598
 :arith-tableau-max-columns           1426
 :arith-tableau-max-rows              1120
 :conflicts                           21130
 :decisions                           5464378
 :del-clause                          606536
 :final-checks                        9630
 :iuc_solver.num_proxies              2155
 :max-memory                          197.97
 :memory                              172.30
 :minimized-lits                      18856
 :mk-bool-var                         511450
 :mk-clause                           734922
 :num-allocs                          335462972860.00
 :num-checks                          18332
 :pool_solver.checks                  9166
 :pool_solver.checks.sat              1209
 :pool_solver.checks.undef            1663
 :propagations                        12493966
 :rlimit-count                        182928991
 :time                                52.74
 :time.iuc_solver.get_iuc             2.10
 :time.iuc_solver.get_iuc.hyp_reduce1 0.80
 :time.iuc_solver.get_iuc.hyp_reduce2 1.20
 :time.iuc_solver.get_iuc.learn_core  0.34
 :time.pool_solver.proof              0.32
 :time.pool_solver.smt.total          43.22
 :time.pool_solver.smt.total.sat      14.77
 :time.pool_solver.smt.total.undef    12.29
 :time.spacer.ctp                     0.07
 :time.spacer.init_rules              0.00
 :time.spacer.mbp                     0.14
 :time.spacer.solve                   52.55
 :time.spacer.solve.propagate         14.92
 :time.spacer.solve.reach             37.63
 :time.spacer.solve.reach.children    0.76
 :time.spacer.solve.reach.cluster     2.80
 :time.spacer.solve.reach.gen.global  1.36
 :time.spacer.solve.reach.gen.ind     16.31
 :time.spacer.solve.reach.is-reach    0.36)
(:max-memory   197.97
 :memory       172.30
 :num-allocs   335462972860.00
 :rlimit-count 182928991
 :time         52.74
 :total-time   52.76)
